(set-info :origin "driver benchmark extracted from Microsoft SDV")
(set-logic HORN)
(declare-fun Proc27 (Int Int Int Bool Int) Bool)
(declare-fun Proc34 (Int Int Int Bool Int) Bool)
(declare-fun Proc24 (Int Int Int Bool Int) Bool)
(declare-fun Proc33 (Int Int Int Bool Int) Bool)
(declare-fun Proc43 (Int Int Int Bool Int Bool Int Int Int) Bool)
(declare-fun Proc20 (Int Int Int Bool Int Int Int) Bool)
(declare-fun Proc13 (Int Int Int Bool) Bool)
(declare-fun Proc7 (Int Int Int Bool) Bool)
(declare-fun Proc9 (Int Int Int Bool) Bool)
(declare-fun Proc5 (Int Int Int Bool Int Int Int) Bool)
(declare-fun Proc8 (Int Int Int Bool) Bool)
(declare-fun Proc16 (Int Int Int Bool) Bool)
(declare-fun Proc14 (Int Int Int Bool) Bool)
(declare-fun Proc39 (Int Int Int Bool) Bool)
(declare-fun Proc23 (Int Int Int Bool Int) Bool)
(declare-fun Proc37 (Int Int Int Bool Int Int) Bool)
(declare-fun Proc12 (Int Int Int Bool) Bool)
(declare-fun Proc22 (Int Int Int Bool Int) Bool)
(declare-fun Proc30 (Int Int Int Bool Int) Bool)
(declare-fun Proc32 (Int Int Int Bool Int) Bool)
(declare-fun Proc25 (Int Int Int Bool Int) Bool)
(declare-fun Proc41 (Int Int Int Bool Int Int) Bool)
(declare-fun Proc4 (Int Int Int Bool Int Int Int) Bool)
(declare-fun Proc11 (Int Int Int Bool) Bool)
(declare-fun Proc17 (Int Int Int Bool) Bool)
(declare-fun Proc29 (Int Int Int Bool Int) Bool)
(declare-fun Proc36 (Int Int Int Bool) Bool)
(declare-fun Proc10 (Int Int Int Bool Int Int) Bool)
(declare-fun Proc38 (Int Int Int Bool Int Int Int Int Int Int) Bool)
(declare-fun Proc3 (Int Int Int Bool Int Int) Bool)
(declare-fun Proc31 (Int Int Int Bool Int) Bool)
(declare-fun Proc19 (Int Int Int Bool Int) Bool)
(declare-fun Proc2 (Int Int Int Bool Int Int Int Int Int) Bool)
(declare-fun Proc35 (Int Int Int Bool Int) Bool)
(declare-fun Proc26 (Int Int Int Bool Int) Bool)
(declare-fun Proc42 (Int Int Int Bool) Bool)
(declare-fun Proc18 (Int Int Int Bool) Bool)
(declare-fun Proc40 (Int Int Int Bool) Bool)
(declare-fun Proc21 (Int Int Int Bool Int Int Int Bool Int) Bool)
(declare-fun Proc28 (Int Int Int Bool Int) Bool)
(declare-fun Proc15 (Int Int Int Bool) Bool)
(declare-fun Proc6 (Int Int Int Bool) Bool)
(declare-fun Proc1 (Int Int Int Bool Int Int) Bool)
(declare-fun Proc0 (Int Int Int Bool Int Int) Bool)
(assert (forall ((A Int)
         (B Int)
         (C Int)
         (D Int)
         (E Int)
         (F Int)
         (G Int)
         (H Int)
         (I Int)
         (J Int)
         (K Int)
         (L Int)
         (M Int)
         (N Bool))
  (let ((a!1 (not (and (= G 0) (= F J) (= E L))))
        (a!3 (and (not (<= C (+ 1 D))) (not (<= C I)))))
  (let ((a!2 (or (not (and (= L K) (= J I))) (not (Proc0 J L H N M 0)) a!1))
        (a!4 (or (not (= D I))
                 (not a!3)
                 (not (Proc1 C K H N D B))
                 (not (and (= L B) (= J C)))
                 (not (Proc0 J L H N M 0))
                 a!1)))
    (=> (not (or (not N) (= M 0) (and a!2 a!4))) (Proc2 I K H N A M G F E))))))
(assert (forall ((A Int)
         (B Int)
         (C Int)
         (D Int)
         (E Int)
         (F Int)
         (G Int)
         (H Int)
         (I Int)
         (N Bool))
  (let ((a!1 (and (not (<= G (+ 1 I))) (not (<= G H)))))
  (let ((a!2 (or (not N)
                 (not (= I H))
                 (not a!1)
                 (not (Proc3 G F E N I D))
                 (not (and (= C G) (= B D))))))
    (=> (not a!2) (Proc4 H F E N A C B))))))
(assert (forall ((A Int)
         (B Int)
         (C Int)
         (D Int)
         (E Int)
         (F Int)
         (G Int)
         (H Int)
         (I Int)
         (J Int)
         (N Bool))
  (let ((a!1 (or (not (= E 1))
                 (not (and (= D E) (= C F)))
                 (not (and (= B C) (= A D)))))
        (a!2 (or (= E 1)
                 (not (and (= D E) (= C F)))
                 (not (and (= B C) (= A D)))))
        (a!3 (or (not (= J 0))
                 (not (and (= D H) (= C I)))
                 (not (and (= B C) (= A D))))))
  (let ((a!4 (and (or (= J 0) (not (Proc4 I J H N G F E)) (and a!1 a!2)) a!3)))
    (=> (not (or (not N) a!4)) (Proc5 I J H N G B A))))))
(assert (forall ((A Int) (B Int) (C Int) (D Int) (E Int) (N Bool))
  (let ((a!1 (not (or (not N) (not (= E 1))))))
    (=> a!1 (Proc3 D C B N A E)))))
(assert (forall ((A Int) (B Int) (C Int) (D Int) (E Int) (N Bool))
  (let ((a!1 (not (or (not N) (not (= E 0))))))
    (=> a!1 (Proc1 D C B N A E)))))
(assert (forall ((A Int) (B Int) (C Int) (N Bool)) (=> N (Proc6 C B A N))))
(assert (forall ((A Int) (B Int) (C Int) (N Bool)) (=> N (Proc7 C B A N))))
(assert (forall ((A Int) (B Int) (C Int) (N Bool)) (=> N (Proc8 C B A N))))
(assert (forall ((A Int) (B Int) (C Int) (N Bool)) (=> N (Proc9 C B A N))))
(assert (forall ((A Int) (B Int) (C Int) (D Int) (E Int) (N Bool))
  (let ((a!1 (or (not N) (not (and (= E 0) (= D 0))))))
    (=> (not a!1) (Proc10 C B A N E D)))))
(assert (forall ((A Int) (B Int) (C Int) (N Bool)) (=> N (Proc11 C B A N))))
(assert (forall ((A Int) (B Int) (C Int) (N Bool)) (=> N (Proc12 C B A N))))
(assert (forall ((A Int) (B Int) (C Int) (N Bool)) (=> N (Proc13 C B A N))))
(assert (forall ((A Int) (B Int) (C Int) (N Bool)) (=> N (Proc14 C B A N))))
(assert (forall ((A Int) (B Int) (C Int) (N Bool)) (=> N (Proc15 C B A N))))
(assert (forall ((A Int) (B Int) (C Int) (N Bool)) (=> N (Proc16 C B A N))))
(assert (forall ((A Int) (B Int) (C Int) (N Bool)) (=> N (Proc17 C B A N))))
(assert (forall ((A Int) (B Int) (C Int) (N Bool)) (=> N (Proc18 C B A N))))
(assert (forall ((A Int)
         (B Int)
         (C Int)
         (D Int)
         (E Int)
         (F Int)
         (G Int)
         (H Int)
         (I Int)
         (J Int)
         (K Int)
         (L Int)
         (M Int)
         (N Bool)
         (O Bool)
         (P Bool)
         (Q Int)
         (R Int)
         (S Int)
         (T Bool))
  (let ((a!1 (not (and (not (<= S 0)) (Proc19 S R Q T M))))
        (a!2 (not (and (= E G) (= D I) (= C H) (= O P) (= B J)))))
  (let ((a!3 (or (= H 0) (not (and (= G F) (not P))) a!2))
        (a!4 (or (not (and (= H 0) (= N T))) (not (and (= G A) (= P N))) a!2)))
  (let ((a!5 (and (or (= H 1) (and a!3 a!4)) (or (not (= H 1)) (and a!3 a!4)))))
  (let ((a!6 (not (or (not T)
                      a!1
                      (not (Proc10 M R Q T L K))
                      (not (Proc9 M L K T))
                      (not (Proc8 M L K T))
                      (not (Proc7 M L K T))
                      (not (Proc18 M L K T))
                      (not (Proc17 M L K T))
                      (not (Proc16 M L K T))
                      (not (Proc15 M L K T))
                      (not (Proc14 M L K T))
                      (not (Proc13 M L K T))
                      (not (Proc12 M L K T))
                      (not (Proc11 M L K T))
                      (not (Proc6 M L K T))
                      (not (Proc20 M L K T J I H))
                      a!5))))
    (=> a!6 (Proc21 S R Q T E D C O B))))))))
(assert (forall ((A Int) (B Int) (C Int) (D Int) (N Bool))
  (let ((a!1 (not (or (not N) (not (= D 0))))))
    (=> a!1 (Proc22 C B A N D)))))
(assert (forall ((A Int) (B Int) (C Int) (D Int) (N Bool))
  (let ((a!1 (not (or (not N) (not (= D 0))))))
    (=> a!1 (Proc23 C B A N D)))))
(assert (forall ((A Int) (B Int) (C Int) (D Int) (N Bool))
  (let ((a!1 (not (or (not N) (not (= D 1))))))
    (=> a!1 (Proc24 C B A N D)))))
(assert (forall ((A Int) (B Int) (C Int) (D Int) (N Bool))
  (let ((a!1 (not (or (not N) (not (= D 0))))))
    (=> a!1 (Proc25 C B A N D)))))
(assert (forall ((A Int) (B Int) (C Int) (D Int) (N Bool))
  (let ((a!1 (not (or (not N) (not (= D 1))))))
    (=> a!1 (Proc26 C B A N D)))))
(assert (forall ((A Int) (B Int) (C Int) (D Int) (N Bool))
  (let ((a!1 (not (or (not N) (not (= D 0))))))
    (=> a!1 (Proc27 C B A N D)))))
(assert (forall ((A Int) (B Int) (C Int) (D Int) (N Bool))
  (let ((a!1 (not (or (not N) (not (= D 0))))))
    (=> a!1 (Proc28 C B A N D)))))
(assert (forall ((A Int) (B Int) (C Int) (D Int) (N Bool))
  (let ((a!1 (not (or (not N) (not (= D 0))))))
    (=> a!1 (Proc29 C B A N D)))))
(assert (forall ((A Int) (B Int) (C Int) (D Int) (N Bool))
  (let ((a!1 (not (or (not N) (not (= D 0))))))
    (=> a!1 (Proc30 C B A N D)))))
(assert (forall ((A Int) (B Int) (C Int) (D Int) (N Bool))
  (let ((a!1 (not (or (not N) (not (= D 0))))))
    (=> a!1 (Proc31 C B A N D)))))
(assert (forall ((A Int) (B Int) (C Int) (D Int) (N Bool))
  (let ((a!1 (not (or (not N) (not (= D 0))))))
    (=> a!1 (Proc32 C B A N D)))))
(assert (forall ((A Int) (B Int) (C Int) (D Int) (E Int) (N Bool))
  (let ((a!1 (or (not N) (not (= E (- 1073741823))) (not (= D E)))))
    (=> (not a!1) (Proc33 C B A N D)))))
(assert (forall ((A Int) (B Int) (C Int) (D Int) (E Int) (N Bool))
  (=> N (Proc0 E D C N B A))))
(assert (forall ((A Int) (B Int) (C Int) (D Int) (N Bool))
  (let ((a!1 (not (or (not N) (not (= D 0))))))
    (=> a!1 (Proc34 C B A N D)))))
(assert (forall ((A Int)
         (B Int)
         (C Int)
         (D Int)
         (E Int)
         (F Int)
         (G Int)
         (H Int)
         (I Int)
         (J Int)
         (K Int)
         (L Int)
         (M Int)
         (N Bool)
         (Q Int)
         (R Int)
         (S Int)
         (U Int)
         (V Int)
         (W Int)
         (X Int)
         (Y Int)
         (Z Int)
         (A1 Int)
         (B1 Int)
         (C1 Int)
         (D1 Int)
         (E1 Int)
         (F1 Int)
         (G1 Int))
  (let ((a!1 (not (and (= S W) (= R X) (= Q V) (= M U))))
        (a!2 (not (and (= L R) (= K Q) (= J M) (= I S))))
        (a!4 (and (not (<= G (+ 1 H))) (not (<= G Z)))))
  (let ((a!3 (or (not (and (= X A1) (= W D1) (= V Z) (= U Y)))
                 (not (Proc37 V U W N X G1))
                 (= G1 0)
                 a!1
                 a!2))
        (a!5 (or (not (= E 1)) (not (and (= S E) (= R D) (= Q F) (= M Y))) a!2))
        (a!6 (or (= E 1)
                 (not (and (= X A1) (= W E) (= V F) (= U Y)))
                 (not (Proc37 V U W N X G1))
                 (= G1 0)
                 a!1
                 a!2))
        (a!8 (or (not (Proc33 F1 E1 D1 N C))
                 (not (and (= X C) (= W D1) (= V F1) (= U E1)))
                 (not (Proc37 V U W N X G1))
                 (= G1 0)
                 a!1
                 a!2))
        (a!9 (or (not (Proc33 F1 E1 D1 N B))
                 (not (and (= X B) (= W D1) (= V F1) (= U E1)))
                 (not (Proc37 V U W N X G1))
                 (= G1 0)
                 a!1
                 a!2))
        (a!10 (or (= C1 0)
                  (not (Proc33 F1 E1 D1 N A))
                  (not (and (= X A) (= W D1) (= V F1) (= U E1)))
                  (not (Proc37 V U W N X G1))
                  (= G1 0)
                  a!1
                  a!2)))
  (let ((a!7 (and a!3
                  (or (not (= H Z))
                      (not a!4)
                      (not (Proc5 G Y D1 N H F E))
                      (and a!5 a!6)))))
  (let ((a!11 (and (or (= C1 0) (not (Proc2 F1 E1 D1 N B1 G1 A1 Z Y)) a!7)
                   a!8
                   a!9
                   a!10)))
  (let ((a!12 (not (or (not N)
                       (= G1 0)
                       (not (Proc35 F1 E1 D1 N G1))
                       (= C1 0)
                       (not (Proc36 F1 E1 D1 N))
                       a!11))))
    (=> a!12 (Proc38 F1 E1 D1 N B1 G1 L K J I)))))))))
(assert (forall ((A Int) (B Int) (C Int) (D Int) (E Int) (F Int) (N Bool))
  (let ((a!1 (not (or (not N)
                      (not (Proc39 F E D N))
                      (not (Proc33 F E D N C))
                      (not (Proc40 F E D N))))))
    (=> a!1 (Proc41 F E D N B A)))))
(assert (forall ((A Int) (B Int) (C Int) (D Int) (N Bool))
  (=> (not (or (not N) (= D 0))) (Proc35 C B A N D))))
(assert (forall ((A Int)
         (B Int)
         (C Int)
         (D Int)
         (E Int)
         (F Int)
         (G Int)
         (H Int)
         (I Int)
         (J Int)
         (K Int)
         (L Int)
         (M Int)
         (N Bool)
         (Q Int)
         (R Int)
         (S Int)
         (U Int)
         (V Int)
         (W Int)
         (X Int)
         (Y Int)
         (Z Int)
         (A1 Int)
         (B1 Int)
         (C1 Int)
         (D1 Int)
         (E1 Int)
         (F1 Int)
         (G1 Int))
  (let ((a!1 (not (and (= E G) (= D H) (= C F))))
        (a!3 (not (and (not (= I 1)) (= H J) (= G K) (= F I)))))
  (let ((a!2 (or (not (and (= I 1) (= H J) (= G K) (= F I))) a!1))
        (a!4 (or (not (and (= D1 0) (= H F1) (= G G1) (= F E1))) a!1))
        (a!5 (or (= C1 0)
                 (not (Proc42 G1 F1 E1 N))
                 (not (and (Proc41 G1 F1 E1 N B A) (= H F1) (= G G1) (= F E1)))
                 a!1))
        (a!6 (or (not (and (= C1 0) (= H F1) (= G G1) (= F E1))) a!1))
        (a!7 (or (not (= H F1)) (not (and (= G G1) (= F E1))) a!1)))
  (let ((a!8 (and (or (= D1 0)
                      (not (Proc42 G1 F1 E1 N))
                      (not (Proc38 G1 F1 E1 N Q M L K J I))
                      (and a!2 (or a!3 a!1)))
                  a!4
                  a!5
                  a!6
                  a!7)))
  (let ((a!9 (not (or (not N)
                      (not (Proc24 G1 F1 E1 N D1))
                      (not (Proc31 G1 F1 E1 N C1))
                      (not (Proc25 G1 F1 E1 N B1))
                      (not (Proc30 G1 F1 E1 N A1))
                      (not (Proc23 G1 F1 E1 N Z))
                      (not (Proc27 G1 F1 E1 N Y))
                      (not (Proc34 G1 F1 E1 N X))
                      (not (Proc32 G1 F1 E1 N W))
                      (not (Proc22 G1 F1 E1 N V))
                      (not (Proc28 G1 F1 E1 N U))
                      (not (Proc29 G1 F1 E1 N S))
                      (not (Proc26 G1 F1 E1 N R))
                      a!8))))
    (=> a!9 (Proc20 G1 F1 E1 N E D C))))))))
(assert (forall ((A Int) (B Int) (C Int) (N Bool)) (=> N (Proc36 C B A N))))
(assert (forall ((A Int) (B Int) (C Int) (D Int) (E Int) (N Bool))
  (=> N (Proc37 E D C N B A))))
(assert (forall ((A Int) (B Int) (C Int) (N Bool)) (=> N (Proc42 C B A N))))
(assert (forall ((A Int) (B Int) (C Int) (N Bool)) (=> N (Proc39 C B A N))))
(assert (forall ((A Int) (B Int) (C Int) (N Bool)) (=> N (Proc40 C B A N))))
(assert (forall ((A Int)
         (B Int)
         (C Int)
         (D Int)
         (E Int)
         (F Int)
         (G Int)
         (H Int)
         (I Int)
         (J Int)
         (K Int)
         (L Int)
         (M Int)
         (N Bool)
         (Q Int)
         (R Int)
         (S Int)
         (U Int)
         (V Int)
         (W Int)
         (X Int)
         (Y Int)
         (Z Int)
         (A1 Int)
         (B1 Int)
         (C1 Int)
         (D1 Int)
         (E1 Int)
         (F1 Int)
         (G1 Int)
         (H1 Int)
         (I1 Int)
         (J1 Int)
         (K1 Int)
         (L1 Int)
         (M1 Int)
         (N1 Int)
         (O1 Int)
         (P1 Int)
         (Q1 Int)
         (R1 Int)
         (S1 Int)
         (T1 Int)
         (U1 Int)
         (V1 Int)
         (W1 Int)
         (X1 Int)
         (Y1 Int)
         (Z1 Int)
         (A2 Int)
         (B2 Int)
         (C2 Int)
         (D2 Int))
  (let ((a!1 (and (= D2 C2)
                  (not (<= B2 (+ 240 D2)))
                  (not (<= B2 C2))
                  (= A2 B2)
                  (not (<= Z1 (+ 4 A2)))
                  (not (<= Z1 B2))
                  (= Y1 Z1)
                  (not (<= X1 (+ 332 Y1)))))
        (a!2 (and (not (<= X1 Z1))
                  (= W1 X1)
                  (not (<= V1 (+ 4 W1)))
                  (not (<= V1 X1))
                  (= U1 V1)
                  (not (<= T1 (+ 536 U1)))
                  (not (<= T1 V1))
                  (= S1 T1)
                  (not (<= R1 (+ 240 S1)))
                  (not (<= R1 T1))
                  (= Q1 R1)
                  (not (<= P1 (+ 240 Q1)))
                  (not (<= P1 R1))
                  (= O1 P1)
                  (not (<= N1 (+ 240 O1)))
                  (not (<= N1 P1))
                  (= M1 N1)
                  (not (<= L1 (+ 4 M1)))
                  (not (<= L1 N1))
                  (= K1 L1)
                  (not (<= J1 (+ 536 K1)))
                  (not (<= J1 L1))
                  (= I1 J1)
                  (not (<= H1 (+ 332 I1)))
                  (not (<= H1 J1))
                  (= G1 H1)
                  (not (<= F1 (+ 240 G1)))
                  (not (<= F1 H1))
                  (= E1 F1)
                  (not (<= D1 (+ 240 E1)))
                  (not (<= D1 F1))
                  (= C1 D1)
                  (not (<= B1 (+ 332 C1)))
                  (not (<= B1 D1))
                  (= A1 B1)
                  (not (<= Z (+ 4 A1)))
                  (not (<= Z B1))
                  (= Y Z)
                  (not (<= X (+ 240 Y)))
                  (not (<= X Z))
                  (= W X)
                  (not (<= V (+ 240 W)))
                  (not (<= V X))
                  (= U V)
                  (not (<= S (+ 240 U)))
                  (not (<= S V))
                  (= R S)
                  (not (<= Q (+ 240 R)))
                  (not (<= Q S))
                  (= M Q)
                  (not (<= L (+ 240 M)))
                  (not (<= L Q))
                  (= K L)
                  (not (<= J (+ 40 K)))
                  (not (<= J L))
                  (= I J)
                  (not (<= H (+ 332 I)))
                  (not (<= H J))
                  (= G H)
                  (not (<= F (+ 4 G)))
                  (not (<= F H))
                  (= E F)
                  (not (<= D (+ 40 E)))
                  (not (<= D F)))))
  (let ((a!3 (not (or (not N) (not a!1) (not a!2) (not (= C D))))))
    (=> a!3 (Proc19 C2 B A N C))))))
(assert (forall ((A Int)
         (B Int)
         (C Int)
         (D Int)
         (E Int)
         (F Int)
         (G Int)
         (H Int)
         (I Int)
         (J Int)
         (K Int)
         (N Bool)
         (O Bool)
         (P Bool))
  (let ((a!1 (or (not P) (not (and (Proc21 K J I true H G F O E) (not O))))))
    (=> (not a!1) (Proc43 K J I P D N C B A)))))
(assert (let ((a!1 (exists ((V0 Int)
                    (V1 Int)
                    (V2 Int)
                    (V3 Bool)
                    (V4 Int)
                    (V5 Bool)
                    (V6 Int)
                    (V7 Int)
                    (V8 Int))
             (not (=> (and (Proc43 V0 V1 V2 V3 V4 V5 V6 V7 V8) (not false))
                      false)))))
  (not a!1)))

(check-sat)
